c File: data_files/evolved_graphs/g0170.col
c
c Auto generated graph
c
p edge 100 2459
e 1 3
e 1 4
e 1 5
e 1 6
e 1 9
e 1 11
e 1 12
e 1 15
e 1 21
e 1 26
e 1 28
e 1 29
e 1 30
e 1 31
e 1 35
e 1 38
e 1 39
e 1 40
e 1 41
e 1 43
e 1 44
e 1 45
e 1 49
e 1 52
e 1 53
e 1 54
e 1 55
e 1 58
e 1 61
e 1 62
e 1 63
e 1 67
e 1 68
e 1 71
e 1 72
e 1 73
e 1 74
e 1 80
e 1 84
e 1 91
e 1 94
e 1 100
e 2 5
e 2 8
e 2 9
e 2 12
e 2 13
e 2 17
e 2 19
e 2 20
e 2 21
e 2 22
e 2 24
e 2 28
e 2 29
e 2 30
e 2 37
e 2 39
e 2 40
e 2 41
e 2 42
e 2 43
e 2 44
e 2 46
e 2 47
e 2 48
e 2 51
e 2 53
e 2 54
e 2 55
e 2 61
e 2 62
e 2 63
e 2 68
e 2 69
e 2 70
e 2 72
e 2 73
e 2 74
e 2 80
e 2 88
e 2 90
e 2 100
e 3 5
e 3 7
e 3 8
e 3 9
e 3 11
e 3 18
e 3 20
e 3 21
e 3 24
e 3 27
e 3 31
e 3 32
e 3 38
e 3 39
e 3 41
e 3 42
e 3 44
e 3 45
e 3 47
e 3 48
e 3 51
e 3 52
e 3 57
e 3 58
e 3 63
e 3 65
e 3 67
e 3 70
e 3 71
e 3 76
e 3 82
e 3 85
e 3 89
e 4 7
e 4 11
e 4 14
e 4 16
e 4 18
e 4 19
e 4 20
e 4 21
e 4 24
e 4 25
e 4 26
e 4 34
e 4 38
e 4 40
e 4 41
e 4 42
e 4 43
e 4 49
e 4 52
e 4 53
e 4 61
e 4 70
e 4 75
e 4 76
e 4 86
e 4 91
e 5 7
e 5 11
e 5 14
e 5 15
e 5 16
e 5 18
e 5 19
e 5 20
e 5 24
e 5 26
e 5 28
e 5 29
e 5 30
e 5 34
e 5 35
e 5 36
e 5 38
e 5 41
e 5 47
e 5 50
e 5 51
e 5 53
e 5 54
e 5 55
e 5 57
e 5 59
e 5 60
e 5 66
e 5 67
e 5 69
e 5 72
e 5 75
e 5 82
e 5 87
e 5 93
e 6 8
e 6 9
e 6 10
e 6 12
e 6 13
e 6 15
e 6 16
e 6 21
e 6 24
e 6 25
e 6 26
e 6 34
e 6 35
e 6 38
e 6 42
e 6 43
e 6 44
e 6 46
e 6 47
e 6 49
e 6 52
e 6 54
e 6 56
e 6 57
e 6 59
e 6 64
e 6 67
e 6 69
e 6 70
e 6 73
e 6 74
e 6 85
e 6 99
e 7 8
e 7 12
e 7 15
e 7 17
e 7 18
e 7 19
e 7 20
e 7 22
e 7 23
e 7 25
e 7 34
e 7 35
e 7 36
e 7 38
e 7 40
e 7 41
e 7 42
e 7 43
e 7 44
e 7 47
e 7 49
e 7 52
e 7 53
e 7 55
e 7 56
e 7 57
e 7 58
e 7 59
e 7 61
e 7 66
e 7 67
e 7 70
e 7 71
e 7 73
e 7 74
e 7 76
e 7 80
e 7 82
e 7 83
e 7 94
e 7 96
e 7 99
e 8 10
e 8 12
e 8 15
e 8 18
e 8 23
e 8 25
e 8 26
e 8 27
e 8 28
e 8 29
e 8 31
e 8 35
e 8 42
e 8 43
e 8 45
e 8 47
e 8 48
e 8 52
e 8 53
e 8 54
e 8 56
e 8 62
e 8 63
e 8 64
e 8 65
e 8 67
e 8 68
e 8 69
e 8 70
e 8 71
e 8 72
e 8 78
e 8 79
e 8 81
e 8 84
e 8 91
e 8 95
e 8 97
e 8 98
e 9 10
e 9 11
e 9 12
e 9 14
e 9 15
e 9 19
e 9 24
e 9 26
e 9 27
e 9 28
e 9 32
e 9 34
e 9 35
e 9 39
e 9 41
e 9 42
e 9 44
e 9 47
e 9 48
e 9 49
e 9 50
e 9 53
e 9 54
e 9 56
e 9 57
e 9 59
e 9 64
e 9 65
e 9 66
e 9 69
e 9 73
e 9 75
e 9 86
e 9 87
e 9 88
e 10 11
e 10 18
e 10 20
e 10 24
e 10 26
e 10 28
e 10 29
e 10 34
e 10 36
e 10 37
e 10 40
e 10 41
e 10 43
e 10 44
e 10 46
e 10 49
e 10 51
e 10 55
e 10 58
e 10 63
e 10 64
e 10 67
e 10 76
e 10 86
e 10 94
e 10 95
e 11 17
e 11 22
e 11 23
e 11 25
e 11 27
e 11 29
e 11 30
e 11 32
e 11 36
e 11 38
e 11 39
e 11 45
e 11 49
e 11 50
e 11 51
e 11 52
e 11 54
e 11 57
e 11 58
e 11 60
e 11 63
e 11 69
e 11 70
e 11 71
e 11 72
e 11 73
e 11 74
e 11 81
e 11 93
e 12 13
e 12 14
e 12 15
e 12 16
e 12 17
e 12 18
e 12 25
e 12 27
e 12 29
e 12 30
e 12 31
e 12 33
e 12 35
e 12 38
e 12 41
e 12 42
e 12 52
e 12 58
e 12 59
e 12 61
e 12 62
e 12 64
e 12 65
e 12 66
e 12 67
e 12 69
e 12 70
e 12 71
e 12 72
e 12 73
e 12 74
e 12 75
e 12 79
e 12 81
e 12 87
e 12 94
e 12 97
e 13 16
e 13 17
e 13 23
e 13 25
e 13 28
e 13 32
e 13 33
e 13 35
e 13 36
e 13 37
e 13 38
e 13 39
e 13 42
e 13 44
e 13 45
e 13 54
e 13 58
e 13 63
e 13 66
e 13 68
e 13 72
e 13 73
e 13 74
e 13 75
e 13 80
e 13 84
e 13 86
e 13 90
e 14 16
e 14 17
e 14 18
e 14 23
e 14 27
e 14 30
e 14 32
e 14 33
e 14 37
e 14 38
e 14 40
e 14 41
e 14 44
e 14 47
e 14 48
e 14 49
e 14 52
e 14 53
e 14 54
e 14 55
e 14 57
e 14 59
e 14 60
e 14 61
e 14 63
e 14 64
e 14 66
e 14 70
e 14 71
e 14 73
e 14 76
e 14 78
e 14 85
e 14 87
e 14 92
e 14 94
e 14 100
e 15 18
e 15 19
e 15 20
e 15 24
e 15 27
e 15 37
e 15 38
e 15 39
e 15 44
e 15 47
e 15 48
e 15 51
e 15 53
e 15 56
e 15 57
e 15 59
e 15 60
e 15 63
e 15 66
e 15 68
e 15 69
e 15 74
e 15 84
e 15 85
e 15 86
e 15 87
e 15 88
e 15 89
e 15 90
e 15 91
e 15 92
e 15 93
e 15 94
e 15 95
e 15 96
e 15 97
e 15 98
e 15 99
e 15 100
e 16 17
e 16 18
e 16 21
e 16 22
e 16 25
e 16 30
e 16 31
e 16 33
e 16 34
e 16 35
e 16 36
e 16 37
e 16 38
e 16 40
e 16 41
e 16 49
e 16 50
e 16 51
e 16 56
e 16 57
e 16 58
e 16 66
e 16 67
e 16 68
e 16 69
e 16 70
e 16 71
e 16 73
e 16 74
e 16 75
e 16 78
e 16 84
e 16 85
e 16 86
e 16 87
e 16 88
e 16 89
e 16 90
e 16 91
e 16 92
e 16 93
e 16 94
e 16 95
e 16 96
e 16 97
e 16 98
e 16 99
e 16 100
e 17 19
e 17 21
e 17 22
e 17 24
e 17 26
e 17 29
e 17 31
e 17 32
e 17 34
e 17 35
e 17 37
e 17 40
e 17 46
e 17 47
e 17 49
e 17 51
e 17 52
e 17 54
e 17 58
e 17 59
e 17 61
e 17 68
e 17 69
e 17 72
e 17 78
e 17 83
e 17 84
e 17 85
e 17 86
e 17 87
e 17 88
e 17 89
e 17 90
e 17 91
e 17 92
e 17 93
e 17 94
e 17 95
e 17 96
e 17 97
e 17 98
e 17 100
e 18 19
e 18 20
e 18 21
e 18 23
e 18 24
e 18 29
e 18 30
e 18 36
e 18 39
e 18 41
e 18 42
e 18 52
e 18 55
e 18 57
e 18 58
e 18 64
e 18 67
e 18 68
e 18 72
e 18 82
e 18 84
e 18 85
e 18 86
e 18 87
e 18 88
e 18 90
e 18 91
e 18 92
e 18 93
e 18 94
e 18 95
e 18 96
e 18 97
e 18 98
e 18 100
e 19 20
e 19 21
e 19 24
e 19 25
e 19 26
e 19 27
e 19 28
e 19 30
e 19 34
e 19 36
e 19 40
e 19 41
e 19 44
e 19 45
e 19 46
e 19 47
e 19 49
e 19 51
e 19 52
e 19 53
e 19 54
e 19 55
e 19 57
e 19 59
e 19 66
e 19 68
e 19 70
e 19 74
e 19 84
e 19 85
e 19 86
e 19 88
e 19 89
e 19 90
e 19 91
e 19 92
e 19 93
e 19 94
e 19 95
e 19 96
e 19 97
e 19 98
e 19 99
e 19 100
e 20 22
e 20 24
e 20 26
e 20 27
e 20 28
e 20 29
e 20 34
e 20 36
e 20 38
e 20 42
e 20 45
e 20 46
e 20 47
e 20 48
e 20 49
e 20 50
e 20 52
e 20 53
e 20 55
e 20 56
e 20 58
e 20 65
e 20 66
e 20 68
e 20 70
e 20 71
e 20 72
e 20 74
e 20 77
e 20 79
e 20 82
e 20 83
e 20 84
e 20 85
e 20 86
e 20 87
e 20 88
e 20 89
e 20 90
e 20 92
e 20 93
e 20 94
e 20 95
e 20 96
e 20 97
e 20 98
e 20 99
e 20 100
e 21 28
e 21 34
e 21 36
e 21 38
e 21 39
e 21 42
e 21 46
e 21 51
e 21 58
e 21 60
e 21 66
e 21 68
e 21 69
e 21 70
e 21 71
e 21 73
e 21 82
e 21 84
e 21 85
e 21 86
e 21 87
e 21 88
e 21 89
e 21 90
e 21 91
e 21 92
e 21 93
e 21 94
e 21 95
e 21 96
e 21 97
e 21 98
e 21 99
e 21 100
e 22 23
e 22 24
e 22 25
e 22 27
e 22 29
e 22 31
e 22 32
e 22 33
e 22 35
e 22 37
e 22 39
e 22 40
e 22 43
e 22 45
e 22 46
e 22 47
e 22 50
e 22 51
e 22 53
e 22 57
e 22 58
e 22 60
e 22 61
e 22 63
e 22 67
e 22 71
e 22 72
e 22 84
e 22 85
e 22 86
e 22 87
e 22 88
e 22 89
e 22 90
e 22 91
e 22 92
e 22 93
e 22 94
e 22 95
e 22 96
e 22 97
e 22 98
e 22 99
e 22 100
e 23 25
e 23 26
e 23 28
e 23 30
e 23 32
e 23 33
e 23 35
e 23 38
e 23 39
e 23 41
e 23 47
e 23 49
e 23 50
e 23 51
e 23 52
e 23 59
e 23 60
e 23 62
e 23 66
e 23 67
e 23 68
e 23 72
e 23 80
e 23 82
e 23 84
e 23 85
e 23 86
e 23 87
e 23 89
e 23 91
e 23 93
e 23 94
e 23 95
e 23 97
e 23 98
e 23 99
e 23 100
e 24 26
e 24 28
e 24 30
e 24 31
e 24 32
e 24 33
e 24 34
e 24 36
e 24 37
e 24 39
e 24 41
e 24 42
e 24 43
e 24 44
e 24 45
e 24 46
e 24 51
e 24 55
e 24 56
e 24 57
e 24 59
e 24 60
e 24 62
e 24 63
e 24 65
e 24 66
e 24 67
e 24 68
e 24 69
e 24 70
e 24 71
e 24 72
e 24 74
e 24 76
e 24 79
e 24 84
e 24 85
e 24 86
e 24 87
e 24 88
e 24 89
e 24 90
e 24 91
e 24 92
e 24 93
e 24 94
e 24 95
e 24 96
e 24 97
e 24 98
e 24 99
e 24 100
e 25 28
e 25 29
e 25 31
e 25 37
e 25 39
e 25 40
e 25 41
e 25 42
e 25 45
e 25 47
e 25 48
e 25 49
e 25 50
e 25 51
e 25 57
e 25 59
e 25 61
e 25 70
e 25 78
e 25 79
e 25 80
e 25 83
e 25 84
e 25 85
e 25 86
e 25 87
e 25 88
e 25 89
e 25 90
e 25 91
e 25 92
e 25 93
e 25 94
e 25 95
e 25 96
e 25 97
e 25 98
e 25 99
e 25 100
e 26 27
e 26 28
e 26 32
e 26 38
e 26 42
e 26 44
e 26 45
e 26 48
e 26 49
e 26 54
e 26 55
e 26 56
e 26 57
e 26 62
e 26 63
e 26 65
e 26 67
e 26 70
e 26 71
e 26 72
e 26 84
e 26 85
e 26 87
e 26 88
e 26 89
e 26 90
e 26 91
e 26 92
e 26 93
e 26 94
e 26 95
e 26 96
e 26 97
e 26 98
e 26 99
e 27 32
e 27 39
e 27 40
e 27 42
e 27 45
e 27 46
e 27 47
e 27 48
e 27 49
e 27 51
e 27 52
e 27 53
e 27 55
e 27 59
e 27 60
e 27 61
e 27 63
e 27 68
e 27 71
e 27 73
e 27 74
e 27 84
e 27 85
e 27 86
e 27 87
e 27 88
e 27 89
e 27 90
e 27 91
e 27 92
e 27 94
e 27 95
e 27 96
e 27 97
e 27 98
e 27 99
e 27 100
e 28 30
e 28 31
e 28 32
e 28 34
e 28 37
e 28 38
e 28 41
e 28 43
e 28 46
e 28 51
e 28 53
e 28 54
e 28 57
e 28 58
e 28 62
e 28 63
e 28 64
e 28 68
e 28 70
e 28 74
e 28 84
e 28 85
e 28 86
e 28 88
e 28 89
e 28 91
e 28 92
e 28 93
e 28 94
e 28 95
e 28 96
e 28 97
e 28 99
e 28 100
e 29 31
e 29 33
e 29 35
e 29 37
e 29 39
e 29 42
e 29 44
e 29 48
e 29 49
e 29 59
e 29 60
e 29 65
e 29 66
e 29 68
e 29 72
e 29 73
e 29 76
e 29 79
e 29 81
e 29 84
e 29 85
e 29 86
e 29 87
e 29 88
e 29 89
e 29 90
e 29 91
e 29 92
e 29 93
e 29 95
e 29 96
e 29 97
e 29 98
e 29 99
e 29 100
e 30 32
e 30 33
e 30 36
e 30 37
e 30 39
e 30 40
e 30 44
e 30 45
e 30 51
e 30 56
e 30 57
e 30 58
e 30 60
e 30 61
e 30 62
e 30 63
e 30 65
e 30 68
e 30 72
e 30 84
e 30 85
e 30 86
e 30 87
e 30 88
e 30 90
e 30 91
e 30 92
e 30 93
e 30 94
e 30 96
e 30 97
e 30 99
e 30 100
e 31 33
e 31 37
e 31 38
e 31 40
e 31 42
e 31 45
e 31 46
e 31 47
e 31 49
e 31 52
e 31 56
e 31 60
e 31 64
e 31 66
e 31 68
e 31 69
e 31 70
e 31 74
e 31 84
e 31 85
e 31 86
e 31 87
e 31 88
e 31 89
e 31 90
e 31 91
e 31 92
e 31 93
e 31 94
e 31 95
e 31 96
e 31 97
e 31 98
e 31 99
e 31 100
e 32 35
e 32 36
e 32 37
e 32 39
e 32 40
e 32 43
e 32 47
e 32 50
e 32 51
e 32 54
e 32 57
e 32 58
e 32 60
e 32 61
e 32 62
e 32 64
e 32 68
e 32 69
e 32 71
e 32 72
e 32 78
e 32 84
e 32 85
e 32 86
e 32 87
e 32 88
e 32 89
e 32 90
e 32 91
e 32 92
e 32 93
e 32 94
e 32 95
e 32 96
e 32 97
e 32 98
e 32 99
e 32 100
e 33 35
e 33 37
e 33 40
e 33 42
e 33 43
e 33 46
e 33 47
e 33 51
e 33 52
e 33 56
e 33 59
e 33 64
e 33 65
e 33 66
e 33 68
e 33 69
e 33 70
e 33 71
e 33 72
e 33 74
e 33 84
e 33 85
e 33 86
e 33 87
e 33 88
e 33 89
e 33 90
e 33 91
e 33 92
e 33 93
e 33 94
e 33 96
e 33 97
e 33 98
e 33 99
e 33 100
e 34 37
e 34 41
e 34 42
e 34 43
e 34 45
e 34 49
e 34 51
e 34 52
e 34 53
e 34 57
e 34 58
e 34 60
e 34 64
e 34 65
e 34 66
e 34 71
e 34 72
e 34 76
e 34 78
e 34 79
e 34 84
e 34 85
e 34 88
e 34 89
e 34 90
e 34 91
e 34 92
e 34 93
e 34 94
e 34 95
e 34 96
e 34 97
e 34 98
e 34 99
e 34 100
e 35 39
e 35 41
e 35 44
e 35 45
e 35 46
e 35 47
e 35 49
e 35 53
e 35 56
e 35 59
e 35 61
e 35 65
e 35 66
e 35 67
e 35 68
e 35 69
e 35 70
e 35 72
e 35 73
e 35 78
e 35 81
e 35 84
e 35 85
e 35 86
e 35 87
e 35 88
e 35 90
e 35 91
e 35 93
e 35 94
e 35 95
e 35 96
e 35 97
e 35 98
e 35 99
e 35 100
e 36 39
e 36 43
e 36 44
e 36 49
e 36 51
e 36 52
e 36 54
e 36 55
e 36 56
e 36 60
e 36 64
e 36 67
e 36 70
e 36 71
e 36 72
e 36 73
e 36 74
e 36 77
e 36 84
e 36 85
e 36 86
e 36 87
e 36 88
e 36 89
e 36 90
e 36 91
e 36 94
e 36 95
e 36 96
e 36 97
e 36 98
e 36 99
e 36 100
e 37 39
e 37 40
e 37 41
e 37 44
e 37 45
e 37 46
e 37 48
e 37 52
e 37 53
e 37 54
e 37 57
e 37 58
e 37 60
e 37 61
e 37 67
e 37 71
e 37 73
e 37 78
e 37 80
e 37 84
e 37 85
e 37 86
e 37 87
e 37 88
e 37 89
e 37 90
e 37 91
e 37 92
e 37 93
e 37 94
e 37 95
e 37 96
e 37 97
e 37 98
e 37 99
e 37 100
e 38 39
e 38 40
e 38 41
e 38 42
e 38 43
e 38 44
e 38 52
e 38 55
e 38 56
e 38 58
e 38 59
e 38 61
e 38 62
e 38 64
e 38 65
e 38 72
e 38 84
e 38 85
e 38 86
e 38 87
e 38 88
e 38 90
e 38 91
e 38 92
e 38 93
e 38 94
e 38 95
e 38 96
e 38 97
e 38 99
e 38 100
e 39 42
e 39 44
e 39 48
e 39 50
e 39 51
e 39 55
e 39 59
e 39 63
e 39 66
e 39 70
e 39 71
e 39 77
e 39 84
e 39 85
e 39 86
e 39 87
e 39 88
e 39 89
e 39 90
e 39 91
e 39 92
e 39 93
e 39 94
e 39 95
e 39 96
e 39 97
e 39 98
e 39 99
e 39 100
e 40 42
e 40 44
e 40 46
e 40 50
e 40 51
e 40 52
e 40 54
e 40 59
e 40 60
e 40 63
e 40 64
e 40 67
e 40 69
e 40 70
e 40 71
e 40 75
e 40 76
e 40 84
e 40 85
e 40 86
e 40 87
e 40 88
e 40 89
e 40 90
e 40 91
e 40 92
e 40 93
e 40 95
e 40 96
e 40 97
e 40 98
e 40 99
e 40 100
e 41 43
e 41 47
e 41 50
e 41 54
e 41 55
e 41 58
e 41 59
e 41 60
e 41 61
e 41 63
e 41 66
e 41 70
e 41 73
e 41 74
e 41 77
e 41 83
e 41 84
e 41 85
e 41 86
e 41 87
e 41 88
e 41 89
e 41 90
e 41 91
e 41 92
e 41 93
e 41 94
e 41 95
e 41 96
e 41 97
e 41 99
e 41 100
e 42 43
e 42 45
e 42 47
e 42 48
e 42 50
e 42 51
e 42 52
e 42 57
e 42 58
e 42 60
e 42 61
e 42 62
e 42 63
e 42 64
e 42 68
e 42 69
e 42 70
e 42 71
e 42 72
e 42 73
e 42 84
e 42 85
e 42 86
e 42 87
e 42 88
e 42 89
e 42 90
e 42 91
e 42 92
e 42 93
e 42 94
e 42 95
e 42 96
e 42 97
e 42 98
e 42 99
e 42 100
e 43 45
e 43 46
e 43 52
e 43 55
e 43 56
e 43 57
e 43 58
e 43 62
e 43 63
e 43 64
e 43 65
e 43 66
e 43 67
e 43 68
e 43 72
e 43 73
e 43 78
e 43 84
e 43 85
e 43 86
e 43 87
e 43 88
e 43 89
e 43 90
e 43 91
e 43 92
e 43 93
e 43 94
e 43 95
e 43 96
e 43 97
e 43 98
e 43 99
e 43 100
e 44 50
e 44 52
e 44 54
e 44 61
e 44 63
e 44 64
e 44 65
e 44 67
e 44 68
e 44 69
e 44 70
e 44 72
e 44 74
e 44 84
e 44 85
e 44 86
e 44 87
e 44 88
e 44 89
e 44 90
e 44 91
e 44 92
e 44 93
e 44 95
e 44 96
e 44 97
e 44 98
e 44 99
e 44 100
e 45 46
e 45 47
e 45 50
e 45 51
e 45 52
e 45 58
e 45 59
e 45 61
e 45 62
e 45 66
e 45 68
e 45 69
e 45 70
e 45 76
e 45 77
e 45 84
e 45 85
e 45 86
e 45 87
e 45 89
e 45 90
e 45 91
e 45 92
e 45 93
e 45 94
e 45 95
e 45 96
e 45 97
e 45 99
e 45 100
e 46 48
e 46 49
e 46 50
e 46 54
e 46 55
e 46 58
e 46 59
e 46 60
e 46 61
e 46 63
e 46 65
e 46 73
e 46 74
e 46 84
e 46 86
e 46 87
e 46 88
e 46 89
e 46 90
e 46 91
e 46 92
e 46 93
e 46 94
e 46 95
e 46 96
e 46 97
e 46 98
e 46 99
e 47 51
e 47 57
e 47 58
e 47 59
e 47 62
e 47 63
e 47 64
e 47 67
e 47 71
e 47 72
e 47 73
e 47 77
e 47 84
e 47 85
e 47 86
e 47 87
e 47 88
e 47 89
e 47 90
e 47 91
e 47 92
e 47 93
e 47 94
e 47 95
e 47 96
e 47 97
e 47 98
e 47 99
e 47 100
e 48 50
e 48 53
e 48 55
e 48 56
e 48 59
e 48 61
e 48 64
e 48 65
e 48 67
e 48 80
e 48 83
e 48 84
e 48 85
e 48 86
e 48 87
e 48 88
e 48 91
e 48 92
e 48 93
e 48 94
e 48 95
e 48 96
e 48 97
e 48 98
e 48 99
e 48 100
e 49 53
e 49 54
e 49 55
e 49 57
e 49 60
e 49 61
e 49 62
e 49 65
e 49 66
e 49 67
e 49 69
e 49 70
e 49 72
e 49 74
e 49 84
e 49 86
e 49 87
e 49 90
e 49 91
e 49 92
e 49 93
e 49 94
e 49 95
e 49 96
e 49 97
e 49 98
e 49 99
e 49 100
e 50 51
e 50 54
e 50 59
e 50 60
e 50 61
e 50 62
e 50 67
e 50 68
e 50 70
e 50 72
e 50 73
e 50 75
e 50 84
e 50 85
e 50 86
e 50 87
e 50 89
e 50 90
e 50 91
e 50 92
e 50 93
e 50 94
e 50 95
e 50 96
e 50 100
e 51 53
e 51 54
e 51 55
e 51 57
e 51 60
e 51 64
e 51 65
e 51 66
e 51 68
e 51 69
e 51 71
e 51 72
e 51 73
e 51 74
e 51 77
e 51 85
e 51 86
e 51 87
e 51 88
e 51 90
e 51 92
e 51 93
e 51 94
e 51 95
e 51 96
e 51 98
e 51 99
e 51 100
e 52 53
e 52 54
e 52 56
e 52 57
e 52 60
e 52 62
e 52 72
e 52 74
e 52 84
e 52 85
e 52 86
e 52 87
e 52 89
e 52 90
e 52 91
e 52 92
e 52 93
e 52 94
e 52 95
e 52 96
e 52 97
e 52 98
e 52 99
e 52 100
e 53 55
e 53 56
e 53 57
e 53 60
e 53 61
e 53 62
e 53 63
e 53 64
e 53 66
e 53 68
e 53 70
e 53 84
e 53 85
e 53 86
e 53 87
e 53 88
e 53 89
e 53 90
e 53 91
e 53 92
e 53 93
e 53 94
e 53 95
e 53 97
e 53 99
e 53 100
e 54 55
e 54 59
e 54 60
e 54 61
e 54 63
e 54 66
e 54 68
e 54 69
e 54 70
e 54 71
e 54 73
e 54 74
e 54 79
e 54 84
e 54 85
e 54 86
e 54 87
e 54 88
e 54 89
e 54 90
e 54 91
e 54 92
e 54 93
e 54 94
e 54 95
e 54 96
e 54 97
e 54 98
e 54 99
e 54 100
e 55 56
e 55 57
e 55 59
e 55 61
e 55 63
e 55 64
e 55 68
e 55 71
e 55 72
e 55 73
e 55 74
e 55 78
e 55 84
e 55 85
e 55 86
e 55 87
e 55 88
e 55 89
e 55 90
e 55 91
e 55 92
e 55 93
e 55 94
e 55 95
e 55 96
e 55 98
e 55 99
e 55 100
e 56 57
e 56 61
e 56 64
e 56 65
e 56 66
e 56 70
e 56 72
e 56 73
e 56 74
e 56 80
e 56 84
e 56 85
e 56 86
e 56 87
e 56 88
e 56 89
e 56 90
e 56 91
e 56 92
e 56 93
e 56 94
e 56 95
e 56 96
e 56 97
e 56 98
e 56 99
e 56 100
e 57 58
e 57 62
e 57 64
e 57 65
e 57 67
e 57 69
e 57 71
e 57 72
e 57 75
e 57 84
e 57 85
e 57 87
e 57 88
e 57 89
e 57 90
e 57 91
e 57 92
e 57 93
e 57 95
e 57 96
e 57 97
e 57 98
e 57 99
e 57 100
e 58 60
e 58 61
e 58 63
e 58 64
e 58 68
e 58 70
e 58 71
e 58 72
e 58 73
e 58 74
e 58 83
e 58 84
e 58 85
e 58 86
e 58 87
e 58 88
e 58 89
e 58 90
e 58 91
e 58 92
e 58 93
e 58 94
e 58 95
e 58 96
e 58 97
e 58 98
e 58 99
e 58 100
e 59 60
e 59 62
e 59 63
e 59 64
e 59 65
e 59 67
e 59 69
e 59 71
e 59 84
e 59 85
e 59 86
e 59 87
e 59 88
e 59 89
e 59 90
e 59 91
e 59 92
e 59 93
e 59 95
e 59 97
e 59 98
e 59 99
e 59 100
e 60 61
e 60 62
e 60 64
e 60 65
e 60 69
e 60 70
e 60 71
e 60 74
e 60 76
e 60 84
e 60 85
e 60 86
e 60 87
e 60 88
e 60 89
e 60 90
e 60 91
e 60 92
e 60 93
e 60 94
e 60 95
e 60 96
e 60 97
e 60 98
e 60 99
e 60 100
e 61 66
e 61 69
e 61 72
e 61 78
e 61 84
e 61 85
e 61 86
e 61 87
e 61 88
e 61 89
e 61 90
e 61 91
e 61 92
e 61 93
e 61 95
e 61 96
e 61 97
e 61 98
e 61 99
e 61 100
e 62 66
e 62 70
e 62 84
e 62 85
e 62 86
e 62 87
e 62 89
e 62 90
e 62 92
e 62 93
e 62 94
e 62 95
e 62 96
e 62 97
e 62 98
e 62 99
e 62 100
e 63 67
e 63 70
e 63 71
e 63 72
e 63 73
e 63 74
e 63 83
e 63 84
e 63 85
e 63 86
e 63 87
e 63 88
e 63 89
e 63 90
e 63 91
e 63 92
e 63 93
e 63 94
e 63 95
e 63 97
e 63 98
e 63 99
e 63 100
e 64 65
e 64 69
e 64 70
e 64 81
e 64 84
e 64 85
e 64 86
e 64 87
e 64 88
e 64 89
e 64 90
e 64 91
e 64 92
e 64 93
e 64 94
e 64 95
e 64 96
e 64 97
e 64 98
e 64 99
e 64 100
e 65 67
e 65 69
e 65 70
e 65 72
e 65 73
e 65 82
e 65 84
e 65 85
e 65 86
e 65 87
e 65 88
e 65 89
e 65 90
e 65 91
e 65 92
e 65 93
e 65 94
e 65 96
e 65 97
e 65 98
e 65 99
e 65 100
e 66 67
e 66 69
e 66 70
e 66 84
e 66 85
e 66 86
e 66 87
e 66 88
e 66 89
e 66 90
e 66 91
e 66 92
e 66 93
e 66 94
e 66 96
e 66 97
e 66 98
e 66 99
e 67 70
e 67 71
e 67 73
e 67 84
e 67 85
e 67 86
e 67 87
e 67 88
e 67 89
e 67 90
e 67 91
e 67 92
e 67 93
e 67 94
e 67 95
e 67 96
e 67 97
e 67 98
e 67 99
e 67 100
e 68 69
e 68 71
e 68 72
e 68 74
e 68 80
e 68 84
e 68 85
e 68 86
e 68 87
e 68 88
e 68 89
e 68 90
e 68 91
e 68 92
e 68 93
e 68 94
e 68 95
e 68 96
e 68 97
e 68 98
e 68 99
e 68 100
e 69 70
e 69 71
e 69 72
e 69 79
e 69 83
e 69 84
e 69 85
e 69 86
e 69 87
e 69 88
e 69 89
e 69 90
e 69 92
e 69 93
e 69 94
e 69 95
e 69 96
e 69 97
e 69 98
e 69 99
e 69 100
e 70 84
e 70 85
e 70 86
e 70 87
e 70 88
e 70 89
e 70 90
e 70 91
e 70 94
e 70 95
e 70 96
e 70 97
e 70 99
e 71 72
e 71 84
e 71 85
e 71 86
e 71 87
e 71 88
e 71 89
e 71 90
e 71 92
e 71 93
e 71 94
e 71 95
e 71 96
e 71 97
e 71 98
e 71 99
e 71 100
e 72 73
e 72 74
e 72 84
e 72 85
e 72 86
e 72 87
e 72 88
e 72 89
e 72 90
e 72 91
e 72 92
e 72 93
e 72 94
e 72 95
e 72 96
e 72 97
e 72 98
e 72 99
e 72 100
e 73 79
e 73 84
e 73 85
e 73 86
e 73 88
e 73 89
e 73 90
e 73 91
e 73 92
e 73 93
e 73 94
e 73 95
e 73 97
e 73 98
e 73 99
e 73 100
e 74 75
e 74 80
e 74 84
e 74 85
e 74 86
e 74 87
e 74 88
e 74 89
e 74 90
e 74 92
e 74 93
e 74 94
e 74 95
e 74 97
e 74 99
e 74 100
e 75 77
e 75 80
e 75 81
e 75 83
e 75 84
e 75 85
e 75 86
e 75 87
e 75 89
e 75 90
e 75 91
e 75 93
e 75 94
e 75 95
e 75 96
e 75 97
e 75 98
e 75 100
e 76 77
e 76 79
e 76 81
e 76 84
e 76 86
e 76 89
e 76 92
e 76 93
e 76 94
e 76 95
e 76 97
e 76 98
e 76 100
e 77 79
e 77 82
e 77 86
e 77 89
e 77 91
e 77 93
e 77 94
e 77 95
e 77 98
e 77 99
e 78 79
e 78 81
e 78 82
e 78 84
e 78 86
e 78 89
e 78 90
e 78 91
e 78 94
e 78 96
e 78 98
e 78 99
e 79 81
e 79 85
e 79 87
e 79 88
e 79 89
e 79 90
e 79 91
e 79 92
e 79 93
e 79 96
e 79 97
e 79 100
e 80 82
e 80 92
e 80 93
e 80 94
e 80 96
e 80 97
e 80 98
e 80 100
e 81 83
e 81 84
e 81 86
e 81 89
e 81 90
e 81 91
e 81 92
e 81 93
e 81 94
e 81 95
e 81 96
e 81 97
e 81 98
e 81 99
e 82 86
e 82 93
e 82 94
e 82 95
e 82 96
e 82 97
e 82 100
e 83 85
e 83 87
e 83 89
e 83 90
e 83 92
e 83 93
e 83 96
e 83 97
e 83 99
e 83 100
e 84 86
e 84 87
e 84 88
e 84 89
e 84 90
e 84 92
e 84 93
e 84 95
e 84 96
e 84 97
e 84 98
e 84 99
e 85 87
e 85 88
e 85 91
e 85 93
e 85 96
e 85 98
e 85 100
e 86 90
e 86 91
e 86 93
e 86 96
e 86 99
e 86 100
e 87 89
e 87 91
e 87 92
e 87 94
e 87 95
e 87 96
e 87 97
e 87 98
e 87 99
e 87 100
e 88 90
e 88 91
e 88 92
e 88 93
e 88 94
e 88 95
e 88 97
e 88 98
e 88 99
e 89 90
e 89 92
e 89 93
e 89 95
e 89 97
e 89 100
e 90 94
e 90 100
e 91 96
e 92 93
e 92 94
e 92 95
e 92 97
e 92 98
e 92 100
e 93 98
e 93 99
e 93 100
e 94 99
e 95 96
e 95 100
e 97 100
e 99 100
